Iteration #1
Total number of hole bits is 60
Sketch file is sampling_equivalent_6_canonicalizer_equivalent_0_if_else_raw_stateless_alu_2_1_codegen_iteration_1.sk
sampling_equivalent_6_canonicalizer_equivalent_0_if_else_raw_stateless_alu_2_1_codegen_iteration_1.sk passed syntax check. 
Synthesis succeeded with 2 bits, proceeding to verification.
Verification failed.
Use returned counterexamples {'pkt_0': 30} {'state_group_0_state_0': 29}
Iteration #2
Total number of hole bits is 60
Sketch file is sampling_equivalent_6_canonicalizer_equivalent_0_if_else_raw_stateless_alu_2_1_codegen_iteration_2.sk
sampling_equivalent_6_canonicalizer_equivalent_0_if_else_raw_stateless_alu_2_1_codegen_iteration_2.sk passed syntax check. 
Synthesis succeeded with 2 bits, proceeding to verification.
Verification failed.
Use returned counterexamples {'pkt_0': 28} {'state_group_0_state_0': 29}
Iteration #3
Total number of hole bits is 60
Sketch file is sampling_equivalent_6_canonicalizer_equivalent_0_if_else_raw_stateless_alu_2_1_codegen_iteration_3.sk
Synthesis succeeded with 2 bits, proceeding to verification.
Verification failed.
Use returned counterexamples {'pkt_0': 0} {'state_group_0_state_0': 29}
Iteration #4
Total number of hole bits is 60
Sketch file is sampling_equivalent_6_canonicalizer_equivalent_0_if_else_raw_stateless_alu_2_1_codegen_iteration_4.sk
sampling_equivalent_6_canonicalizer_equivalent_0_if_else_raw_stateless_alu_2_1_codegen_iteration_4.sk passed syntax check. 
Synthesis succeeded with 2 bits, proceeding to verification.
Verification failed.
Use returned counterexamples {'pkt_0': 0} {'state_group_0_state_0': 4}
Iteration #5
Total number of hole bits is 60
Sketch file is sampling_equivalent_6_canonicalizer_equivalent_0_if_else_raw_stateless_alu_2_1_codegen_iteration_5.sk
sampling_equivalent_6_canonicalizer_equivalent_0_if_else_raw_stateless_alu_2_1_codegen_iteration_5.sk passed syntax check. 
Synthesis succeeded with 2 bits, proceeding to verification.
sampling_equivalent_6_canonicalizer_equivalent_0_if_else_raw_stateless_alu_2_1_verify_iter_5.sk passed syntax check. 
Failed to generate counterexamples, z3 returned unsat
Compilation succeeded. Hole value assignments are following:
int sampling_equivalent_6_canonicalizer_equivalent_0_if_else_raw_stateless_alu_2_1_stateless_alu_0_0_mux3_ctrl = 0
int sampling_equivalent_6_canonicalizer_equivalent_0_if_else_raw_stateless_alu_2_1_stateful_alu_1_0_Opt_2_global = 0
int sampling_equivalent_6_canonicalizer_equivalent_0_if_else_raw_stateless_alu_2_1_stateful_alu_1_0_Mux3_1_global = 1
int sampling_equivalent_6_canonicalizer_equivalent_0_if_else_raw_stateless_alu_2_1_stateful_alu_1_0_const_0_global = 1
int sampling_equivalent_6_canonicalizer_equivalent_0_if_else_raw_stateless_alu_2_1_stateful_alu_0_0_const_1_global = 0
int sampling_equivalent_6_canonicalizer_equivalent_0_if_else_raw_stateless_alu_2_1_stateful_alu_0_0_rel_op_0_global = 3
int sampling_equivalent_6_canonicalizer_equivalent_0_if_else_raw_stateless_alu_2_1_stateful_alu_0_0_const_0_global = 4
int sampling_equivalent_6_canonicalizer_equivalent_0_if_else_raw_stateless_alu_2_1_stateless_alu_0_0_mux2_ctrl = 0
int sampling_equivalent_6_canonicalizer_equivalent_0_if_else_raw_stateless_alu_2_1_salu_config_1_0 = 0
int sampling_equivalent_6_canonicalizer_equivalent_0_if_else_raw_stateless_alu_2_1_stateful_operand_mux_0_0_1_ctrl = 0
int sampling_equivalent_6_canonicalizer_equivalent_0_if_else_raw_stateless_alu_2_1_stateful_operand_mux_1_0_0_ctrl = 0
int sampling_equivalent_6_canonicalizer_equivalent_0_if_else_raw_stateless_alu_2_1_stateful_alu_1_0_Opt_0_global = 0
int sampling_equivalent_6_canonicalizer_equivalent_0_if_else_raw_stateless_alu_2_1_output_mux_phv_0_0_ctrl = 0
int sampling_equivalent_6_canonicalizer_equivalent_0_if_else_raw_stateless_alu_2_1_stateless_alu_1_0_mux1_ctrl = 0
int sampling_equivalent_6_canonicalizer_equivalent_0_if_else_raw_stateless_alu_2_1_stateful_alu_1_0_const_2_global = 0
int sampling_equivalent_6_canonicalizer_equivalent_0_if_else_raw_stateless_alu_2_1_stateful_operand_mux_0_0_0_ctrl = 0
int sampling_equivalent_6_canonicalizer_equivalent_0_if_else_raw_stateless_alu_2_1_stateless_alu_0_0_opcode = 0
int sampling_equivalent_6_canonicalizer_equivalent_0_if_else_raw_stateless_alu_2_1_stateful_alu_1_0_Opt_1_global = 0
int sampling_equivalent_6_canonicalizer_equivalent_0_if_else_raw_stateless_alu_2_1_stateful_alu_0_0_Mux3_2_global = 2
int sampling_equivalent_6_canonicalizer_equivalent_0_if_else_raw_stateless_alu_2_1_stateless_alu_0_0_mux1_ctrl = 0
int sampling_equivalent_6_canonicalizer_equivalent_0_if_else_raw_stateless_alu_2_1_stateful_alu_0_0_Opt_2_global = 0
int sampling_equivalent_6_canonicalizer_equivalent_0_if_else_raw_stateless_alu_2_1_stateless_alu_1_0_mux2_ctrl = 0
int sampling_equivalent_6_canonicalizer_equivalent_0_if_else_raw_stateless_alu_2_1_stateless_alu_0_0_immediate = 2
int sampling_equivalent_6_canonicalizer_equivalent_0_if_else_raw_stateless_alu_2_1_stateless_alu_1_0_opcode = 9
int sampling_equivalent_6_canonicalizer_equivalent_0_if_else_raw_stateless_alu_2_1_stateful_operand_mux_1_0_1_ctrl = 0
int sampling_equivalent_6_canonicalizer_equivalent_0_if_else_raw_stateless_alu_2_1_stateful_alu_1_0_const_1_global = 4
int sampling_equivalent_6_canonicalizer_equivalent_0_if_else_raw_stateless_alu_2_1_stateful_alu_0_0_Opt_1_global = 1
int sampling_equivalent_6_canonicalizer_equivalent_0_if_else_raw_stateless_alu_2_1_salu_config_0_0 = 1
int sampling_equivalent_6_canonicalizer_equivalent_0_if_else_raw_stateless_alu_2_1_stateless_alu_1_0_immediate = 4
int sampling_equivalent_6_canonicalizer_equivalent_0_if_else_raw_stateless_alu_2_1_stateful_alu_0_0_Mux3_1_global = 2
int sampling_equivalent_6_canonicalizer_equivalent_0_if_else_raw_stateless_alu_2_1_stateful_alu_0_0_Opt_0_global = 0
int sampling_equivalent_6_canonicalizer_equivalent_0_if_else_raw_stateless_alu_2_1_stateful_alu_1_0_Mux3_2_global = 2
int sampling_equivalent_6_canonicalizer_equivalent_0_if_else_raw_stateless_alu_2_1_output_mux_phv_1_0_ctrl = 1
int sampling_equivalent_6_canonicalizer_equivalent_0_if_else_raw_stateless_alu_2_1_stateful_alu_0_0_Mux3_0_global = 2
int sampling_equivalent_6_canonicalizer_equivalent_0_if_else_raw_stateless_alu_2_1_stateful_alu_1_0_rel_op_0_global = 3
int sampling_equivalent_6_canonicalizer_equivalent_0_if_else_raw_stateless_alu_2_1_stateless_alu_1_0_mux3_ctrl = 0
int sampling_equivalent_6_canonicalizer_equivalent_0_if_else_raw_stateless_alu_2_1_stateful_alu_0_0_const_2_global = 1
int sampling_equivalent_6_canonicalizer_equivalent_0_if_else_raw_stateless_alu_2_1_stateful_alu_1_0_Mux3_0_global = 2
Output left in sampling_equivalent_6_canonicalizer_equivalent_0_if_else_raw_stateless_alu_2_1.success